16 
7 
7 
9 
10 
5 
10 
8 
2 
4 
4 
10 
12 
7 
7 
6 
12 
12 
6 
9 
5 
8 
9 
7 
7 
7 
11 
5 
4 
8 
5 
9 
7 
4 
7 
6 
7 
7 
9 
8 
12 
9 
13 
9 
12 
8 
9 
6 
7 
6 
8 
5 
2 
10 
12 
7 
10 
13 
8 
3 
4 
7 
10 
8 
4 
10 
6 
6 
7 
6 
11 
8 
9 
10 
1 
4 
8 
9 
8 
7 
8 
6 
14 
7 
16 
7 
7 
9 
10 
5 
10 
8 
2 
4 
4 
10 
12 
7 
7 
6 
